\ LP format - for model browsing. Use MPS format to capture full model detail.
Minimize
  p0 + p1 + p2 + p3 + p4 + p5 + p6
Subject To
 R0: x0,1_2 + x0,2_2 + x0,3_2 + x0,4_2 + x0,5_2 + x0,6_2 + x1,2_2 + x1,3_2
   + x1,4_2 + x1,5_2 + x1,6_2 + x2,3_2 + x2,4_2 + x2,5_2 + x2,6_2 + x3,4_2
   + x3,5_2 + x3,6_2 + x4,5_2 + x4,6_2 + x5,6_2 = 1
 R1: x0,1_10 + x0,2_10 + x0,3_10 + x0,4_10 + x0,5_10 + x0,6_10 + x1,2_10
   + x1,3_10 + x1,4_10 + x1,5_10 + x1,6_10 + x2,3_10 + x2,4_10 + x2,5_10
   + x2,6_10 + x3,4_10 + x3,5_10 + x3,6_10 + x4,5_10 + x4,6_10 + x5,6_10
   = 1
 R2: x0,1_11 + x0,2_11 + x0,3_11 + x0,4_11 + x0,5_11 + x0,6_11 + x1,2_11
   + x1,3_11 + x1,4_11 + x1,5_11 + x1,6_11 + x2,3_11 + x2,4_11 + x2,5_11
   + x2,6_11 + x3,4_11 + x3,5_11 + x3,6_11 + x4,5_11 + x4,6_11 + x5,6_11
   = 1
 R3: x0,1_13 + x0,2_13 + x0,3_13 + x0,4_13 + x0,5_13 + x0,6_13 + x1,2_13
   + x1,3_13 + x1,4_13 + x1,5_13 + x1,6_13 + x2,3_13 + x2,4_13 + x2,5_13
   + x2,6_13 + x3,4_13 + x3,5_13 + x3,6_13 + x4,5_13 + x4,6_13 + x5,6_13
   = 1
 R4: x0,1_14 + x0,2_14 + x0,3_14 + x0,4_14 + x0,5_14 + x0,6_14 + x1,2_14
   + x1,3_14 + x1,4_14 + x1,5_14 + x1,6_14 + x2,3_14 + x2,4_14 + x2,5_14
   + x2,6_14 + x3,4_14 + x3,5_14 + x3,6_14 + x4,5_14 + x4,6_14 + x5,6_14
   = 1
 R5: x0,1_15 + x0,2_15 + x0,3_15 + x0,4_15 + x0,5_15 + x0,6_15 + x1,2_15
   + x1,3_15 + x1,4_15 + x1,5_15 + x1,6_15 + x2,3_15 + x2,4_15 + x2,5_15
   + x2,6_15 + x3,4_15 + x3,5_15 + x3,6_15 + x4,5_15 + x4,6_15 + x5,6_15
   = 1
 R6: x0,1_16 + x0,2_16 + x0,3_16 + x0,4_16 + x0,5_16 + x0,6_16 + x1,2_16
   + x1,3_16 + x1,4_16 + x1,5_16 + x1,6_16 + x2,3_16 + x2,4_16 + x2,5_16
   + x2,6_16 + x3,4_16 + x3,5_16 + x3,6_16 + x4,5_16 + x4,6_16 + x5,6_16
   = 1
 R7: x0,1_21 + x0,2_21 + x0,3_21 + x0,4_21 + x0,5_21 + x0,6_21 + x1,2_21
   + x1,3_21 + x1,4_21 + x1,5_21 + x1,6_21 + x2,3_21 + x2,4_21 + x2,5_21
   + x2,6_21 + x3,4_21 + x3,5_21 + x3,6_21 + x4,5_21 + x4,6_21 + x5,6_21
   = 1
 R8: x0,1_23 + x0,2_23 + x0,3_23 + x0,4_23 + x0,5_23 + x0,6_23 + x1,2_23
   + x1,3_23 + x1,4_23 + x1,5_23 + x1,6_23 + x2,3_23 + x2,4_23 + x2,5_23
   + x2,6_23 + x3,4_23 + x3,5_23 + x3,6_23 + x4,5_23 + x4,6_23 + x5,6_23
   = 1
 R9: x0,1_25 + x0,2_25 + x0,3_25 + x0,4_25 + x0,5_25 + x0,6_25 + x1,2_25
   + x1,3_25 + x1,4_25 + x1,5_25 + x1,6_25 + x2,3_25 + x2,4_25 + x2,5_25
   + x2,6_25 + x3,4_25 + x3,5_25 + x3,6_25 + x4,5_25 + x4,6_25 + x5,6_25
   = 1
 R10: x0,1_29 + x0,2_29 + x0,3_29 + x0,4_29 + x0,5_29 + x0,6_29 + x1,2_29
   + x1,3_29 + x1,4_29 + x1,5_29 + x1,6_29 + x2,3_29 + x2,4_29 + x2,5_29
   + x2,6_29 + x3,4_29 + x3,5_29 + x3,6_29 + x4,5_29 + x4,6_29 + x5,6_29
   = 1
 R11: x0,1_34 + x0,2_34 + x0,3_34 + x0,4_34 + x0,5_34 + x0,6_34 + x1,2_34
   + x1,3_34 + x1,4_34 + x1,5_34 + x1,6_34 + x2,3_34 + x2,4_34 + x2,5_34
   + x2,6_34 + x3,4_34 + x3,5_34 + x3,6_34 + x4,5_34 + x4,6_34 + x5,6_34
   = 1
 R12: x0,1_36 + x0,2_36 + x0,3_36 + x0,4_36 + x0,5_36 + x0,6_36 + x1,2_36
   + x1,3_36 + x1,4_36 + x1,5_36 + x1,6_36 + x2,3_36 + x2,4_36 + x2,5_36
   + x2,6_36 + x3,4_36 + x3,5_36 + x3,6_36 + x4,5_36 + x4,6_36 + x5,6_36
   = 1
 R13: x0,1_39 + x0,2_39 + x0,3_39 + x0,4_39 + x0,5_39 + x0,6_39 + x1,2_39
   + x1,3_39 + x1,4_39 + x1,5_39 + x1,6_39 + x2,3_39 + x2,4_39 + x2,5_39
   + x2,6_39 + x3,4_39 + x3,5_39 + x3,6_39 + x4,5_39 + x4,6_39 + x5,6_39
   = 1
 R14: x0,1_50 + x0,2_50 + x0,3_50 + x0,4_50 + x0,5_50 + x0,6_50 + x1,2_50
   + x1,3_50 + x1,4_50 + x1,5_50 + x1,6_50 + x2,3_50 + x2,4_50 + x2,5_50
   + x2,6_50 + x3,4_50 + x3,5_50 + x3,6_50 + x4,5_50 + x4,6_50 + x5,6_50
   = 1
 R15: x0,1_2 + x0,1_10 + x0,1_11 + x0,1_13 + x0,1_14 + x0,1_15 + x0,1_16
   + x0,1_21 + x0,1_23 + x0,1_25 + x0,1_29 + x0,1_34 + x0,1_36 + x0,1_39
   + x0,1_50 <= 1
 R16: x0,2_2 + x0,2_10 + x0,2_11 + x0,2_13 + x0,2_14 + x0,2_15 + x0,2_16
   + x0,2_21 + x0,2_23 + x0,2_25 + x0,2_29 + x0,2_34 + x0,2_36 + x0,2_39
   + x0,2_50 <= 1
 R17: x0,3_2 + x0,3_10 + x0,3_11 + x0,3_13 + x0,3_14 + x0,3_15 + x0,3_16
   + x0,3_21 + x0,3_23 + x0,3_25 + x0,3_29 + x0,3_34 + x0,3_36 + x0,3_39
   + x0,3_50 <= 1
 R18: x0,4_2 + x0,4_10 + x0,4_11 + x0,4_13 + x0,4_14 + x0,4_15 + x0,4_16
   + x0,4_21 + x0,4_23 + x0,4_25 + x0,4_29 + x0,4_34 + x0,4_36 + x0,4_39
   + x0,4_50 <= 1
 R19: x0,5_2 + x0,5_10 + x0,5_11 + x0,5_13 + x0,5_14 + x0,5_15 + x0,5_16
   + x0,5_21 + x0,5_23 + x0,5_25 + x0,5_29 + x0,5_34 + x0,5_36 + x0,5_39
   + x0,5_50 <= 1
 R20: x0,6_2 + x0,6_10 + x0,6_11 + x0,6_13 + x0,6_14 + x0,6_15 + x0,6_16
   + x0,6_21 + x0,6_23 + x0,6_25 + x0,6_29 + x0,6_34 + x0,6_36 + x0,6_39
   + x0,6_50 <= 1
 R21: x1,2_2 + x1,2_10 + x1,2_11 + x1,2_13 + x1,2_14 + x1,2_15 + x1,2_16
   + x1,2_21 + x1,2_23 + x1,2_25 + x1,2_29 + x1,2_34 + x1,2_36 + x1,2_39
   + x1,2_50 <= 1
 R22: x1,3_2 + x1,3_10 + x1,3_11 + x1,3_13 + x1,3_14 + x1,3_15 + x1,3_16
   + x1,3_21 + x1,3_23 + x1,3_25 + x1,3_29 + x1,3_34 + x1,3_36 + x1,3_39
   + x1,3_50 <= 1
 R23: x1,4_2 + x1,4_10 + x1,4_11 + x1,4_13 + x1,4_14 + x1,4_15 + x1,4_16
   + x1,4_21 + x1,4_23 + x1,4_25 + x1,4_29 + x1,4_34 + x1,4_36 + x1,4_39
   + x1,4_50 <= 1
 R24: x1,5_2 + x1,5_10 + x1,5_11 + x1,5_13 + x1,5_14 + x1,5_15 + x1,5_16
   + x1,5_21 + x1,5_23 + x1,5_25 + x1,5_29 + x1,5_34 + x1,5_36 + x1,5_39
   + x1,5_50 <= 1
 R25: x1,6_2 + x1,6_10 + x1,6_11 + x1,6_13 + x1,6_14 + x1,6_15 + x1,6_16
   + x1,6_21 + x1,6_23 + x1,6_25 + x1,6_29 + x1,6_34 + x1,6_36 + x1,6_39
   + x1,6_50 <= 1
 R26: x2,3_2 + x2,3_10 + x2,3_11 + x2,3_13 + x2,3_14 + x2,3_15 + x2,3_16
   + x2,3_21 + x2,3_23 + x2,3_25 + x2,3_29 + x2,3_34 + x2,3_36 + x2,3_39
   + x2,3_50 <= 1
 R27: x2,4_2 + x2,4_10 + x2,4_11 + x2,4_13 + x2,4_14 + x2,4_15 + x2,4_16
   + x2,4_21 + x2,4_23 + x2,4_25 + x2,4_29 + x2,4_34 + x2,4_36 + x2,4_39
   + x2,4_50 <= 1
 R28: x2,5_2 + x2,5_10 + x2,5_11 + x2,5_13 + x2,5_14 + x2,5_15 + x2,5_16
   + x2,5_21 + x2,5_23 + x2,5_25 + x2,5_29 + x2,5_34 + x2,5_36 + x2,5_39
   + x2,5_50 <= 1
 R29: x2,6_2 + x2,6_10 + x2,6_11 + x2,6_13 + x2,6_14 + x2,6_15 + x2,6_16
   + x2,6_21 + x2,6_23 + x2,6_25 + x2,6_29 + x2,6_34 + x2,6_36 + x2,6_39
   + x2,6_50 <= 1
 R30: x3,4_2 + x3,4_10 + x3,4_11 + x3,4_13 + x3,4_14 + x3,4_15 + x3,4_16
   + x3,4_21 + x3,4_23 + x3,4_25 + x3,4_29 + x3,4_34 + x3,4_36 + x3,4_39
   + x3,4_50 <= 1
 R31: x3,5_2 + x3,5_10 + x3,5_11 + x3,5_13 + x3,5_14 + x3,5_15 + x3,5_16
   + x3,5_21 + x3,5_23 + x3,5_25 + x3,5_29 + x3,5_34 + x3,5_36 + x3,5_39
   + x3,5_50 <= 1
 R32: x3,6_2 + x3,6_10 + x3,6_11 + x3,6_13 + x3,6_14 + x3,6_15 + x3,6_16
   + x3,6_21 + x3,6_23 + x3,6_25 + x3,6_29 + x3,6_34 + x3,6_36 + x3,6_39
   + x3,6_50 <= 1
 R33: x4,5_2 + x4,5_10 + x4,5_11 + x4,5_13 + x4,5_14 + x4,5_15 + x4,5_16
   + x4,5_21 + x4,5_23 + x4,5_25 + x4,5_29 + x4,5_34 + x4,5_36 + x4,5_39
   + x4,5_50 <= 1
 R34: x4,6_2 + x4,6_10 + x4,6_11 + x4,6_13 + x4,6_14 + x4,6_15 + x4,6_16
   + x4,6_21 + x4,6_23 + x4,6_25 + x4,6_29 + x4,6_34 + x4,6_36 + x4,6_39
   + x4,6_50 <= 1
 R35: x5,6_2 + x5,6_10 + x5,6_11 + x5,6_13 + x5,6_14 + x5,6_15 + x5,6_16
   + x5,6_21 + x5,6_23 + x5,6_25 + x5,6_29 + x5,6_34 + x5,6_36 + x5,6_39
   + x5,6_50 <= 1
 R36: p0 - p1 <= -1
 R37: - 2 x0,1_2 - p0 + p1 >= 0
 R38: 338 x0,1_2 - p0 + p1 <= 340
 R39: - 10 x0,1_10 - p0 + p1 >= 0
 R40: 338 x0,1_10 - p0 + p1 <= 348
 R41: - 11 x0,1_11 - p0 + p1 >= 0
 R42: 338 x0,1_11 - p0 + p1 <= 349
 R43: - 13 x0,1_13 - p0 + p1 >= 0
 R44: 338 x0,1_13 - p0 + p1 <= 351
 R45: - 14 x0,1_14 - p0 + p1 >= 0
 R46: 338 x0,1_14 - p0 + p1 <= 352
 R47: - 15 x0,1_15 - p0 + p1 >= 0
 R48: 338 x0,1_15 - p0 + p1 <= 353
 R49: - 16 x0,1_16 - p0 + p1 >= 0
 R50: 338 x0,1_16 - p0 + p1 <= 354
 R51: - 21 x0,1_21 - p0 + p1 >= 0
 R52: 338 x0,1_21 - p0 + p1 <= 359
 R53: - 23 x0,1_23 - p0 + p1 >= 0
 R54: 338 x0,1_23 - p0 + p1 <= 361
 R55: - 25 x0,1_25 - p0 + p1 >= 0
 R56: 338 x0,1_25 - p0 + p1 <= 363
 R57: - 29 x0,1_29 - p0 + p1 >= 0
 R58: 338 x0,1_29 - p0 + p1 <= 367
 R59: - 34 x0,1_34 - p0 + p1 >= 0
 R60: 338 x0,1_34 - p0 + p1 <= 372
 R61: - 36 x0,1_36 - p0 + p1 >= 0
 R62: 338 x0,1_36 - p0 + p1 <= 374
 R63: - 39 x0,1_39 - p0 + p1 >= 0
 R64: 338 x0,1_39 - p0 + p1 <= 377
 R65: - 50 x0,1_50 - p0 + p1 >= 0
 R66: 338 x0,1_50 - p0 + p1 <= 388
 R67: p0 - p2 <= -1
 R68: - 2 x0,2_2 - p0 + p2 >= 0
 R69: 338 x0,2_2 - p0 + p2 <= 340
 R70: - 10 x0,2_10 - p0 + p2 >= 0
 R71: 338 x0,2_10 - p0 + p2 <= 348
 R72: - 11 x0,2_11 - p0 + p2 >= 0
 R73: 338 x0,2_11 - p0 + p2 <= 349
 R74: - 13 x0,2_13 - p0 + p2 >= 0
 R75: 338 x0,2_13 - p0 + p2 <= 351
 R76: - 14 x0,2_14 - p0 + p2 >= 0
 R77: 338 x0,2_14 - p0 + p2 <= 352
 R78: - 15 x0,2_15 - p0 + p2 >= 0
 R79: 338 x0,2_15 - p0 + p2 <= 353
 R80: - 16 x0,2_16 - p0 + p2 >= 0
 R81: 338 x0,2_16 - p0 + p2 <= 354
 R82: - 21 x0,2_21 - p0 + p2 >= 0
 R83: 338 x0,2_21 - p0 + p2 <= 359
 R84: - 23 x0,2_23 - p0 + p2 >= 0
 R85: 338 x0,2_23 - p0 + p2 <= 361
 R86: - 25 x0,2_25 - p0 + p2 >= 0
 R87: 338 x0,2_25 - p0 + p2 <= 363
 R88: - 29 x0,2_29 - p0 + p2 >= 0
 R89: 338 x0,2_29 - p0 + p2 <= 367
 R90: - 34 x0,2_34 - p0 + p2 >= 0
 R91: 338 x0,2_34 - p0 + p2 <= 372
 R92: - 36 x0,2_36 - p0 + p2 >= 0
 R93: 338 x0,2_36 - p0 + p2 <= 374
 R94: - 39 x0,2_39 - p0 + p2 >= 0
 R95: 338 x0,2_39 - p0 + p2 <= 377
 R96: - 50 x0,2_50 - p0 + p2 >= 0
 R97: 338 x0,2_50 - p0 + p2 <= 388
 R98: p0 - p3 <= -1
 R99: - 2 x0,3_2 - p0 + p3 >= 0
 R100: 338 x0,3_2 - p0 + p3 <= 340
 R101: - 10 x0,3_10 - p0 + p3 >= 0
 R102: 338 x0,3_10 - p0 + p3 <= 348
 R103: - 11 x0,3_11 - p0 + p3 >= 0
 R104: 338 x0,3_11 - p0 + p3 <= 349
 R105: - 13 x0,3_13 - p0 + p3 >= 0
 R106: 338 x0,3_13 - p0 + p3 <= 351
 R107: - 14 x0,3_14 - p0 + p3 >= 0
 R108: 338 x0,3_14 - p0 + p3 <= 352
 R109: - 15 x0,3_15 - p0 + p3 >= 0
 R110: 338 x0,3_15 - p0 + p3 <= 353
 R111: - 16 x0,3_16 - p0 + p3 >= 0
 R112: 338 x0,3_16 - p0 + p3 <= 354
 R113: - 21 x0,3_21 - p0 + p3 >= 0
 R114: 338 x0,3_21 - p0 + p3 <= 359
 R115: - 23 x0,3_23 - p0 + p3 >= 0
 R116: 338 x0,3_23 - p0 + p3 <= 361
 R117: - 25 x0,3_25 - p0 + p3 >= 0
 R118: 338 x0,3_25 - p0 + p3 <= 363
 R119: - 29 x0,3_29 - p0 + p3 >= 0
 R120: 338 x0,3_29 - p0 + p3 <= 367
 R121: - 34 x0,3_34 - p0 + p3 >= 0
 R122: 338 x0,3_34 - p0 + p3 <= 372
 R123: - 36 x0,3_36 - p0 + p3 >= 0
 R124: 338 x0,3_36 - p0 + p3 <= 374
 R125: - 39 x0,3_39 - p0 + p3 >= 0
 R126: 338 x0,3_39 - p0 + p3 <= 377
 R127: - 50 x0,3_50 - p0 + p3 >= 0
 R128: 338 x0,3_50 - p0 + p3 <= 388
 R129: p0 - p4 <= -1
 R130: - 2 x0,4_2 - p0 + p4 >= 0
 R131: 338 x0,4_2 - p0 + p4 <= 340
 R132: - 10 x0,4_10 - p0 + p4 >= 0
 R133: 338 x0,4_10 - p0 + p4 <= 348
 R134: - 11 x0,4_11 - p0 + p4 >= 0
 R135: 338 x0,4_11 - p0 + p4 <= 349
 R136: - 13 x0,4_13 - p0 + p4 >= 0
 R137: 338 x0,4_13 - p0 + p4 <= 351
 R138: - 14 x0,4_14 - p0 + p4 >= 0
 R139: 338 x0,4_14 - p0 + p4 <= 352
 R140: - 15 x0,4_15 - p0 + p4 >= 0
 R141: 338 x0,4_15 - p0 + p4 <= 353
 R142: - 16 x0,4_16 - p0 + p4 >= 0
 R143: 338 x0,4_16 - p0 + p4 <= 354
 R144: - 21 x0,4_21 - p0 + p4 >= 0
 R145: 338 x0,4_21 - p0 + p4 <= 359
 R146: - 23 x0,4_23 - p0 + p4 >= 0
 R147: 338 x0,4_23 - p0 + p4 <= 361
 R148: - 25 x0,4_25 - p0 + p4 >= 0
 R149: 338 x0,4_25 - p0 + p4 <= 363
 R150: - 29 x0,4_29 - p0 + p4 >= 0
 R151: 338 x0,4_29 - p0 + p4 <= 367
 R152: - 34 x0,4_34 - p0 + p4 >= 0
 R153: 338 x0,4_34 - p0 + p4 <= 372
 R154: - 36 x0,4_36 - p0 + p4 >= 0
 R155: 338 x0,4_36 - p0 + p4 <= 374
 R156: - 39 x0,4_39 - p0 + p4 >= 0
 R157: 338 x0,4_39 - p0 + p4 <= 377
 R158: - 50 x0,4_50 - p0 + p4 >= 0
 R159: 338 x0,4_50 - p0 + p4 <= 388
 R160: p0 - p5 <= -1
 R161: - 2 x0,5_2 - p0 + p5 >= 0
 R162: 338 x0,5_2 - p0 + p5 <= 340
 R163: - 10 x0,5_10 - p0 + p5 >= 0
 R164: 338 x0,5_10 - p0 + p5 <= 348
 R165: - 11 x0,5_11 - p0 + p5 >= 0
 R166: 338 x0,5_11 - p0 + p5 <= 349
 R167: - 13 x0,5_13 - p0 + p5 >= 0
 R168: 338 x0,5_13 - p0 + p5 <= 351
 R169: - 14 x0,5_14 - p0 + p5 >= 0
 R170: 338 x0,5_14 - p0 + p5 <= 352
 R171: - 15 x0,5_15 - p0 + p5 >= 0
 R172: 338 x0,5_15 - p0 + p5 <= 353
 R173: - 16 x0,5_16 - p0 + p5 >= 0
 R174: 338 x0,5_16 - p0 + p5 <= 354
 R175: - 21 x0,5_21 - p0 + p5 >= 0
 R176: 338 x0,5_21 - p0 + p5 <= 359
 R177: - 23 x0,5_23 - p0 + p5 >= 0
 R178: 338 x0,5_23 - p0 + p5 <= 361
 R179: - 25 x0,5_25 - p0 + p5 >= 0
 R180: 338 x0,5_25 - p0 + p5 <= 363
 R181: - 29 x0,5_29 - p0 + p5 >= 0
 R182: 338 x0,5_29 - p0 + p5 <= 367
 R183: - 34 x0,5_34 - p0 + p5 >= 0
 R184: 338 x0,5_34 - p0 + p5 <= 372
 R185: - 36 x0,5_36 - p0 + p5 >= 0
 R186: 338 x0,5_36 - p0 + p5 <= 374
 R187: - 39 x0,5_39 - p0 + p5 >= 0
 R188: 338 x0,5_39 - p0 + p5 <= 377
 R189: - 50 x0,5_50 - p0 + p5 >= 0
 R190: 338 x0,5_50 - p0 + p5 <= 388
 R191: p0 - p6 <= -1
 R192: - 2 x0,6_2 - p0 + p6 >= 0
 R193: 338 x0,6_2 - p0 + p6 <= 340
 R194: - 10 x0,6_10 - p0 + p6 >= 0
 R195: 338 x0,6_10 - p0 + p6 <= 348
 R196: - 11 x0,6_11 - p0 + p6 >= 0
 R197: 338 x0,6_11 - p0 + p6 <= 349
 R198: - 13 x0,6_13 - p0 + p6 >= 0
 R199: 338 x0,6_13 - p0 + p6 <= 351
 R200: - 14 x0,6_14 - p0 + p6 >= 0
 R201: 338 x0,6_14 - p0 + p6 <= 352
 R202: - 15 x0,6_15 - p0 + p6 >= 0
 R203: 338 x0,6_15 - p0 + p6 <= 353
 R204: - 16 x0,6_16 - p0 + p6 >= 0
 R205: 338 x0,6_16 - p0 + p6 <= 354
 R206: - 21 x0,6_21 - p0 + p6 >= 0
 R207: 338 x0,6_21 - p0 + p6 <= 359
 R208: - 23 x0,6_23 - p0 + p6 >= 0
 R209: 338 x0,6_23 - p0 + p6 <= 361
 R210: - 25 x0,6_25 - p0 + p6 >= 0
 R211: 338 x0,6_25 - p0 + p6 <= 363
 R212: - 29 x0,6_29 - p0 + p6 >= 0
 R213: 338 x0,6_29 - p0 + p6 <= 367
 R214: - 34 x0,6_34 - p0 + p6 >= 0
 R215: 338 x0,6_34 - p0 + p6 <= 372
 R216: - 36 x0,6_36 - p0 + p6 >= 0
 R217: 338 x0,6_36 - p0 + p6 <= 374
 R218: - 39 x0,6_39 - p0 + p6 >= 0
 R219: 338 x0,6_39 - p0 + p6 <= 377
 R220: - 50 x0,6_50 - p0 + p6 >= 0
 R221: 338 x0,6_50 - p0 + p6 <= 388
 R222: p1 - p2 <= -1
 R223: - 2 x1,2_2 - p1 + p2 >= 0
 R224: 338 x1,2_2 - p1 + p2 <= 340
 R225: - 10 x1,2_10 - p1 + p2 >= 0
 R226: 338 x1,2_10 - p1 + p2 <= 348
 R227: - 11 x1,2_11 - p1 + p2 >= 0
 R228: 338 x1,2_11 - p1 + p2 <= 349
 R229: - 13 x1,2_13 - p1 + p2 >= 0
 R230: 338 x1,2_13 - p1 + p2 <= 351
 R231: - 14 x1,2_14 - p1 + p2 >= 0
 R232: 338 x1,2_14 - p1 + p2 <= 352
 R233: - 15 x1,2_15 - p1 + p2 >= 0
 R234: 338 x1,2_15 - p1 + p2 <= 353
 R235: - 16 x1,2_16 - p1 + p2 >= 0
 R236: 338 x1,2_16 - p1 + p2 <= 354
 R237: - 21 x1,2_21 - p1 + p2 >= 0
 R238: 338 x1,2_21 - p1 + p2 <= 359
 R239: - 23 x1,2_23 - p1 + p2 >= 0
 R240: 338 x1,2_23 - p1 + p2 <= 361
 R241: - 25 x1,2_25 - p1 + p2 >= 0
 R242: 338 x1,2_25 - p1 + p2 <= 363
 R243: - 29 x1,2_29 - p1 + p2 >= 0
 R244: 338 x1,2_29 - p1 + p2 <= 367
 R245: - 34 x1,2_34 - p1 + p2 >= 0
 R246: 338 x1,2_34 - p1 + p2 <= 372
 R247: - 36 x1,2_36 - p1 + p2 >= 0
 R248: 338 x1,2_36 - p1 + p2 <= 374
 R249: - 39 x1,2_39 - p1 + p2 >= 0
 R250: 338 x1,2_39 - p1 + p2 <= 377
 R251: - 50 x1,2_50 - p1 + p2 >= 0
 R252: 338 x1,2_50 - p1 + p2 <= 388
 R253: p1 - p3 <= -1
 R254: - 2 x1,3_2 - p1 + p3 >= 0
 R255: 338 x1,3_2 - p1 + p3 <= 340
 R256: - 10 x1,3_10 - p1 + p3 >= 0
 R257: 338 x1,3_10 - p1 + p3 <= 348
 R258: - 11 x1,3_11 - p1 + p3 >= 0
 R259: 338 x1,3_11 - p1 + p3 <= 349
 R260: - 13 x1,3_13 - p1 + p3 >= 0
 R261: 338 x1,3_13 - p1 + p3 <= 351
 R262: - 14 x1,3_14 - p1 + p3 >= 0
 R263: 338 x1,3_14 - p1 + p3 <= 352
 R264: - 15 x1,3_15 - p1 + p3 >= 0
 R265: 338 x1,3_15 - p1 + p3 <= 353
 R266: - 16 x1,3_16 - p1 + p3 >= 0
 R267: 338 x1,3_16 - p1 + p3 <= 354
 R268: - 21 x1,3_21 - p1 + p3 >= 0
 R269: 338 x1,3_21 - p1 + p3 <= 359
 R270: - 23 x1,3_23 - p1 + p3 >= 0
 R271: 338 x1,3_23 - p1 + p3 <= 361
 R272: - 25 x1,3_25 - p1 + p3 >= 0
 R273: 338 x1,3_25 - p1 + p3 <= 363
 R274: - 29 x1,3_29 - p1 + p3 >= 0
 R275: 338 x1,3_29 - p1 + p3 <= 367
 R276: - 34 x1,3_34 - p1 + p3 >= 0
 R277: 338 x1,3_34 - p1 + p3 <= 372
 R278: - 36 x1,3_36 - p1 + p3 >= 0
 R279: 338 x1,3_36 - p1 + p3 <= 374
 R280: - 39 x1,3_39 - p1 + p3 >= 0
 R281: 338 x1,3_39 - p1 + p3 <= 377
 R282: - 50 x1,3_50 - p1 + p3 >= 0
 R283: 338 x1,3_50 - p1 + p3 <= 388
 R284: p1 - p4 <= -1
 R285: - 2 x1,4_2 - p1 + p4 >= 0
 R286: 338 x1,4_2 - p1 + p4 <= 340
 R287: - 10 x1,4_10 - p1 + p4 >= 0
 R288: 338 x1,4_10 - p1 + p4 <= 348
 R289: - 11 x1,4_11 - p1 + p4 >= 0
 R290: 338 x1,4_11 - p1 + p4 <= 349
 R291: - 13 x1,4_13 - p1 + p4 >= 0
 R292: 338 x1,4_13 - p1 + p4 <= 351
 R293: - 14 x1,4_14 - p1 + p4 >= 0
 R294: 338 x1,4_14 - p1 + p4 <= 352
 R295: - 15 x1,4_15 - p1 + p4 >= 0
 R296: 338 x1,4_15 - p1 + p4 <= 353
 R297: - 16 x1,4_16 - p1 + p4 >= 0
 R298: 338 x1,4_16 - p1 + p4 <= 354
 R299: - 21 x1,4_21 - p1 + p4 >= 0
 R300: 338 x1,4_21 - p1 + p4 <= 359
 R301: - 23 x1,4_23 - p1 + p4 >= 0
 R302: 338 x1,4_23 - p1 + p4 <= 361
 R303: - 25 x1,4_25 - p1 + p4 >= 0
 R304: 338 x1,4_25 - p1 + p4 <= 363
 R305: - 29 x1,4_29 - p1 + p4 >= 0
 R306: 338 x1,4_29 - p1 + p4 <= 367
 R307: - 34 x1,4_34 - p1 + p4 >= 0
 R308: 338 x1,4_34 - p1 + p4 <= 372
 R309: - 36 x1,4_36 - p1 + p4 >= 0
 R310: 338 x1,4_36 - p1 + p4 <= 374
 R311: - 39 x1,4_39 - p1 + p4 >= 0
 R312: 338 x1,4_39 - p1 + p4 <= 377
 R313: - 50 x1,4_50 - p1 + p4 >= 0
 R314: 338 x1,4_50 - p1 + p4 <= 388
 R315: p1 - p5 <= -1
 R316: - 2 x1,5_2 - p1 + p5 >= 0
 R317: 338 x1,5_2 - p1 + p5 <= 340
 R318: - 10 x1,5_10 - p1 + p5 >= 0
 R319: 338 x1,5_10 - p1 + p5 <= 348
 R320: - 11 x1,5_11 - p1 + p5 >= 0
 R321: 338 x1,5_11 - p1 + p5 <= 349
 R322: - 13 x1,5_13 - p1 + p5 >= 0
 R323: 338 x1,5_13 - p1 + p5 <= 351
 R324: - 14 x1,5_14 - p1 + p5 >= 0
 R325: 338 x1,5_14 - p1 + p5 <= 352
 R326: - 15 x1,5_15 - p1 + p5 >= 0
 R327: 338 x1,5_15 - p1 + p5 <= 353
 R328: - 16 x1,5_16 - p1 + p5 >= 0
 R329: 338 x1,5_16 - p1 + p5 <= 354
 R330: - 21 x1,5_21 - p1 + p5 >= 0
 R331: 338 x1,5_21 - p1 + p5 <= 359
 R332: - 23 x1,5_23 - p1 + p5 >= 0
 R333: 338 x1,5_23 - p1 + p5 <= 361
 R334: - 25 x1,5_25 - p1 + p5 >= 0
 R335: 338 x1,5_25 - p1 + p5 <= 363
 R336: - 29 x1,5_29 - p1 + p5 >= 0
 R337: 338 x1,5_29 - p1 + p5 <= 367
 R338: - 34 x1,5_34 - p1 + p5 >= 0
 R339: 338 x1,5_34 - p1 + p5 <= 372
 R340: - 36 x1,5_36 - p1 + p5 >= 0
 R341: 338 x1,5_36 - p1 + p5 <= 374
 R342: - 39 x1,5_39 - p1 + p5 >= 0
 R343: 338 x1,5_39 - p1 + p5 <= 377
 R344: - 50 x1,5_50 - p1 + p5 >= 0
 R345: 338 x1,5_50 - p1 + p5 <= 388
 R346: p1 - p6 <= -1
 R347: - 2 x1,6_2 - p1 + p6 >= 0
 R348: 338 x1,6_2 - p1 + p6 <= 340
 R349: - 10 x1,6_10 - p1 + p6 >= 0
 R350: 338 x1,6_10 - p1 + p6 <= 348
 R351: - 11 x1,6_11 - p1 + p6 >= 0
 R352: 338 x1,6_11 - p1 + p6 <= 349
 R353: - 13 x1,6_13 - p1 + p6 >= 0
 R354: 338 x1,6_13 - p1 + p6 <= 351
 R355: - 14 x1,6_14 - p1 + p6 >= 0
 R356: 338 x1,6_14 - p1 + p6 <= 352
 R357: - 15 x1,6_15 - p1 + p6 >= 0
 R358: 338 x1,6_15 - p1 + p6 <= 353
 R359: - 16 x1,6_16 - p1 + p6 >= 0
 R360: 338 x1,6_16 - p1 + p6 <= 354
 R361: - 21 x1,6_21 - p1 + p6 >= 0
 R362: 338 x1,6_21 - p1 + p6 <= 359
 R363: - 23 x1,6_23 - p1 + p6 >= 0
 R364: 338 x1,6_23 - p1 + p6 <= 361
 R365: - 25 x1,6_25 - p1 + p6 >= 0
 R366: 338 x1,6_25 - p1 + p6 <= 363
 R367: - 29 x1,6_29 - p1 + p6 >= 0
 R368: 338 x1,6_29 - p1 + p6 <= 367
 R369: - 34 x1,6_34 - p1 + p6 >= 0
 R370: 338 x1,6_34 - p1 + p6 <= 372
 R371: - 36 x1,6_36 - p1 + p6 >= 0
 R372: 338 x1,6_36 - p1 + p6 <= 374
 R373: - 39 x1,6_39 - p1 + p6 >= 0
 R374: 338 x1,6_39 - p1 + p6 <= 377
 R375: - 50 x1,6_50 - p1 + p6 >= 0
 R376: 338 x1,6_50 - p1 + p6 <= 388
 R377: p2 - p3 <= -1
 R378: - 2 x2,3_2 - p2 + p3 >= 0
 R379: 338 x2,3_2 - p2 + p3 <= 340
 R380: - 10 x2,3_10 - p2 + p3 >= 0
 R381: 338 x2,3_10 - p2 + p3 <= 348
 R382: - 11 x2,3_11 - p2 + p3 >= 0
 R383: 338 x2,3_11 - p2 + p3 <= 349
 R384: - 13 x2,3_13 - p2 + p3 >= 0
 R385: 338 x2,3_13 - p2 + p3 <= 351
 R386: - 14 x2,3_14 - p2 + p3 >= 0
 R387: 338 x2,3_14 - p2 + p3 <= 352
 R388: - 15 x2,3_15 - p2 + p3 >= 0
 R389: 338 x2,3_15 - p2 + p3 <= 353
 R390: - 16 x2,3_16 - p2 + p3 >= 0
 R391: 338 x2,3_16 - p2 + p3 <= 354
 R392: - 21 x2,3_21 - p2 + p3 >= 0
 R393: 338 x2,3_21 - p2 + p3 <= 359
 R394: - 23 x2,3_23 - p2 + p3 >= 0
 R395: 338 x2,3_23 - p2 + p3 <= 361
 R396: - 25 x2,3_25 - p2 + p3 >= 0
 R397: 338 x2,3_25 - p2 + p3 <= 363
 R398: - 29 x2,3_29 - p2 + p3 >= 0
 R399: 338 x2,3_29 - p2 + p3 <= 367
 R400: - 34 x2,3_34 - p2 + p3 >= 0
 R401: 338 x2,3_34 - p2 + p3 <= 372
 R402: - 36 x2,3_36 - p2 + p3 >= 0
 R403: 338 x2,3_36 - p2 + p3 <= 374
 R404: - 39 x2,3_39 - p2 + p3 >= 0
 R405: 338 x2,3_39 - p2 + p3 <= 377
 R406: - 50 x2,3_50 - p2 + p3 >= 0
 R407: 338 x2,3_50 - p2 + p3 <= 388
 R408: p2 - p4 <= -1
 R409: - 2 x2,4_2 - p2 + p4 >= 0
 R410: 338 x2,4_2 - p2 + p4 <= 340
 R411: - 10 x2,4_10 - p2 + p4 >= 0
 R412: 338 x2,4_10 - p2 + p4 <= 348
 R413: - 11 x2,4_11 - p2 + p4 >= 0
 R414: 338 x2,4_11 - p2 + p4 <= 349
 R415: - 13 x2,4_13 - p2 + p4 >= 0
 R416: 338 x2,4_13 - p2 + p4 <= 351
 R417: - 14 x2,4_14 - p2 + p4 >= 0
 R418: 338 x2,4_14 - p2 + p4 <= 352
 R419: - 15 x2,4_15 - p2 + p4 >= 0
 R420: 338 x2,4_15 - p2 + p4 <= 353
 R421: - 16 x2,4_16 - p2 + p4 >= 0
 R422: 338 x2,4_16 - p2 + p4 <= 354
 R423: - 21 x2,4_21 - p2 + p4 >= 0
 R424: 338 x2,4_21 - p2 + p4 <= 359
 R425: - 23 x2,4_23 - p2 + p4 >= 0
 R426: 338 x2,4_23 - p2 + p4 <= 361
 R427: - 25 x2,4_25 - p2 + p4 >= 0
 R428: 338 x2,4_25 - p2 + p4 <= 363
 R429: - 29 x2,4_29 - p2 + p4 >= 0
 R430: 338 x2,4_29 - p2 + p4 <= 367
 R431: - 34 x2,4_34 - p2 + p4 >= 0
 R432: 338 x2,4_34 - p2 + p4 <= 372
 R433: - 36 x2,4_36 - p2 + p4 >= 0
 R434: 338 x2,4_36 - p2 + p4 <= 374
 R435: - 39 x2,4_39 - p2 + p4 >= 0
 R436: 338 x2,4_39 - p2 + p4 <= 377
 R437: - 50 x2,4_50 - p2 + p4 >= 0
 R438: 338 x2,4_50 - p2 + p4 <= 388
 R439: p2 - p5 <= -1
 R440: - 2 x2,5_2 - p2 + p5 >= 0
 R441: 338 x2,5_2 - p2 + p5 <= 340
 R442: - 10 x2,5_10 - p2 + p5 >= 0
 R443: 338 x2,5_10 - p2 + p5 <= 348
 R444: - 11 x2,5_11 - p2 + p5 >= 0
 R445: 338 x2,5_11 - p2 + p5 <= 349
 R446: - 13 x2,5_13 - p2 + p5 >= 0
 R447: 338 x2,5_13 - p2 + p5 <= 351
 R448: - 14 x2,5_14 - p2 + p5 >= 0
 R449: 338 x2,5_14 - p2 + p5 <= 352
 R450: - 15 x2,5_15 - p2 + p5 >= 0
 R451: 338 x2,5_15 - p2 + p5 <= 353
 R452: - 16 x2,5_16 - p2 + p5 >= 0
 R453: 338 x2,5_16 - p2 + p5 <= 354
 R454: - 21 x2,5_21 - p2 + p5 >= 0
 R455: 338 x2,5_21 - p2 + p5 <= 359
 R456: - 23 x2,5_23 - p2 + p5 >= 0
 R457: 338 x2,5_23 - p2 + p5 <= 361
 R458: - 25 x2,5_25 - p2 + p5 >= 0
 R459: 338 x2,5_25 - p2 + p5 <= 363
 R460: - 29 x2,5_29 - p2 + p5 >= 0
 R461: 338 x2,5_29 - p2 + p5 <= 367
 R462: - 34 x2,5_34 - p2 + p5 >= 0
 R463: 338 x2,5_34 - p2 + p5 <= 372
 R464: - 36 x2,5_36 - p2 + p5 >= 0
 R465: 338 x2,5_36 - p2 + p5 <= 374
 R466: - 39 x2,5_39 - p2 + p5 >= 0
 R467: 338 x2,5_39 - p2 + p5 <= 377
 R468: - 50 x2,5_50 - p2 + p5 >= 0
 R469: 338 x2,5_50 - p2 + p5 <= 388
 R470: p2 - p6 <= -1
 R471: - 2 x2,6_2 - p2 + p6 >= 0
 R472: 338 x2,6_2 - p2 + p6 <= 340
 R473: - 10 x2,6_10 - p2 + p6 >= 0
 R474: 338 x2,6_10 - p2 + p6 <= 348
 R475: - 11 x2,6_11 - p2 + p6 >= 0
 R476: 338 x2,6_11 - p2 + p6 <= 349
 R477: - 13 x2,6_13 - p2 + p6 >= 0
 R478: 338 x2,6_13 - p2 + p6 <= 351
 R479: - 14 x2,6_14 - p2 + p6 >= 0
 R480: 338 x2,6_14 - p2 + p6 <= 352
 R481: - 15 x2,6_15 - p2 + p6 >= 0
 R482: 338 x2,6_15 - p2 + p6 <= 353
 R483: - 16 x2,6_16 - p2 + p6 >= 0
 R484: 338 x2,6_16 - p2 + p6 <= 354
 R485: - 21 x2,6_21 - p2 + p6 >= 0
 R486: 338 x2,6_21 - p2 + p6 <= 359
 R487: - 23 x2,6_23 - p2 + p6 >= 0
 R488: 338 x2,6_23 - p2 + p6 <= 361
 R489: - 25 x2,6_25 - p2 + p6 >= 0
 R490: 338 x2,6_25 - p2 + p6 <= 363
 R491: - 29 x2,6_29 - p2 + p6 >= 0
 R492: 338 x2,6_29 - p2 + p6 <= 367
 R493: - 34 x2,6_34 - p2 + p6 >= 0
 R494: 338 x2,6_34 - p2 + p6 <= 372
 R495: - 36 x2,6_36 - p2 + p6 >= 0
 R496: 338 x2,6_36 - p2 + p6 <= 374
 R497: - 39 x2,6_39 - p2 + p6 >= 0
 R498: 338 x2,6_39 - p2 + p6 <= 377
 R499: - 50 x2,6_50 - p2 + p6 >= 0
 R500: 338 x2,6_50 - p2 + p6 <= 388
 R501: p3 - p4 <= -1
 R502: - 2 x3,4_2 - p3 + p4 >= 0
 R503: 338 x3,4_2 - p3 + p4 <= 340
 R504: - 10 x3,4_10 - p3 + p4 >= 0
 R505: 338 x3,4_10 - p3 + p4 <= 348
 R506: - 11 x3,4_11 - p3 + p4 >= 0
 R507: 338 x3,4_11 - p3 + p4 <= 349
 R508: - 13 x3,4_13 - p3 + p4 >= 0
 R509: 338 x3,4_13 - p3 + p4 <= 351
 R510: - 14 x3,4_14 - p3 + p4 >= 0
 R511: 338 x3,4_14 - p3 + p4 <= 352
 R512: - 15 x3,4_15 - p3 + p4 >= 0
 R513: 338 x3,4_15 - p3 + p4 <= 353
 R514: - 16 x3,4_16 - p3 + p4 >= 0
 R515: 338 x3,4_16 - p3 + p4 <= 354
 R516: - 21 x3,4_21 - p3 + p4 >= 0
 R517: 338 x3,4_21 - p3 + p4 <= 359
 R518: - 23 x3,4_23 - p3 + p4 >= 0
 R519: 338 x3,4_23 - p3 + p4 <= 361
 R520: - 25 x3,4_25 - p3 + p4 >= 0
 R521: 338 x3,4_25 - p3 + p4 <= 363
 R522: - 29 x3,4_29 - p3 + p4 >= 0
 R523: 338 x3,4_29 - p3 + p4 <= 367
 R524: - 34 x3,4_34 - p3 + p4 >= 0
 R525: 338 x3,4_34 - p3 + p4 <= 372
 R526: - 36 x3,4_36 - p3 + p4 >= 0
 R527: 338 x3,4_36 - p3 + p4 <= 374
 R528: - 39 x3,4_39 - p3 + p4 >= 0
 R529: 338 x3,4_39 - p3 + p4 <= 377
 R530: - 50 x3,4_50 - p3 + p4 >= 0
 R531: 338 x3,4_50 - p3 + p4 <= 388
 R532: p3 - p5 <= -1
 R533: - 2 x3,5_2 - p3 + p5 >= 0
 R534: 338 x3,5_2 - p3 + p5 <= 340
 R535: - 10 x3,5_10 - p3 + p5 >= 0
 R536: 338 x3,5_10 - p3 + p5 <= 348
 R537: - 11 x3,5_11 - p3 + p5 >= 0
 R538: 338 x3,5_11 - p3 + p5 <= 349
 R539: - 13 x3,5_13 - p3 + p5 >= 0
 R540: 338 x3,5_13 - p3 + p5 <= 351
 R541: - 14 x3,5_14 - p3 + p5 >= 0
 R542: 338 x3,5_14 - p3 + p5 <= 352
 R543: - 15 x3,5_15 - p3 + p5 >= 0
 R544: 338 x3,5_15 - p3 + p5 <= 353
 R545: - 16 x3,5_16 - p3 + p5 >= 0
 R546: 338 x3,5_16 - p3 + p5 <= 354
 R547: - 21 x3,5_21 - p3 + p5 >= 0
 R548: 338 x3,5_21 - p3 + p5 <= 359
 R549: - 23 x3,5_23 - p3 + p5 >= 0
 R550: 338 x3,5_23 - p3 + p5 <= 361
 R551: - 25 x3,5_25 - p3 + p5 >= 0
 R552: 338 x3,5_25 - p3 + p5 <= 363
 R553: - 29 x3,5_29 - p3 + p5 >= 0
 R554: 338 x3,5_29 - p3 + p5 <= 367
 R555: - 34 x3,5_34 - p3 + p5 >= 0
 R556: 338 x3,5_34 - p3 + p5 <= 372
 R557: - 36 x3,5_36 - p3 + p5 >= 0
 R558: 338 x3,5_36 - p3 + p5 <= 374
 R559: - 39 x3,5_39 - p3 + p5 >= 0
 R560: 338 x3,5_39 - p3 + p5 <= 377
 R561: - 50 x3,5_50 - p3 + p5 >= 0
 R562: 338 x3,5_50 - p3 + p5 <= 388
 R563: p3 - p6 <= -1
 R564: - 2 x3,6_2 - p3 + p6 >= 0
 R565: 338 x3,6_2 - p3 + p6 <= 340
 R566: - 10 x3,6_10 - p3 + p6 >= 0
 R567: 338 x3,6_10 - p3 + p6 <= 348
 R568: - 11 x3,6_11 - p3 + p6 >= 0
 R569: 338 x3,6_11 - p3 + p6 <= 349
 R570: - 13 x3,6_13 - p3 + p6 >= 0
 R571: 338 x3,6_13 - p3 + p6 <= 351
 R572: - 14 x3,6_14 - p3 + p6 >= 0
 R573: 338 x3,6_14 - p3 + p6 <= 352
 R574: - 15 x3,6_15 - p3 + p6 >= 0
 R575: 338 x3,6_15 - p3 + p6 <= 353
 R576: - 16 x3,6_16 - p3 + p6 >= 0
 R577: 338 x3,6_16 - p3 + p6 <= 354
 R578: - 21 x3,6_21 - p3 + p6 >= 0
 R579: 338 x3,6_21 - p3 + p6 <= 359
 R580: - 23 x3,6_23 - p3 + p6 >= 0
 R581: 338 x3,6_23 - p3 + p6 <= 361
 R582: - 25 x3,6_25 - p3 + p6 >= 0
 R583: 338 x3,6_25 - p3 + p6 <= 363
 R584: - 29 x3,6_29 - p3 + p6 >= 0
 R585: 338 x3,6_29 - p3 + p6 <= 367
 R586: - 34 x3,6_34 - p3 + p6 >= 0
 R587: 338 x3,6_34 - p3 + p6 <= 372
 R588: - 36 x3,6_36 - p3 + p6 >= 0
 R589: 338 x3,6_36 - p3 + p6 <= 374
 R590: - 39 x3,6_39 - p3 + p6 >= 0
 R591: 338 x3,6_39 - p3 + p6 <= 377
 R592: - 50 x3,6_50 - p3 + p6 >= 0
 R593: 338 x3,6_50 - p3 + p6 <= 388
 R594: p4 - p5 <= -1
 R595: - 2 x4,5_2 - p4 + p5 >= 0
 R596: 338 x4,5_2 - p4 + p5 <= 340
 R597: - 10 x4,5_10 - p4 + p5 >= 0
 R598: 338 x4,5_10 - p4 + p5 <= 348
 R599: - 11 x4,5_11 - p4 + p5 >= 0
 R600: 338 x4,5_11 - p4 + p5 <= 349
 R601: - 13 x4,5_13 - p4 + p5 >= 0
 R602: 338 x4,5_13 - p4 + p5 <= 351
 R603: - 14 x4,5_14 - p4 + p5 >= 0
 R604: 338 x4,5_14 - p4 + p5 <= 352
 R605: - 15 x4,5_15 - p4 + p5 >= 0
 R606: 338 x4,5_15 - p4 + p5 <= 353
 R607: - 16 x4,5_16 - p4 + p5 >= 0
 R608: 338 x4,5_16 - p4 + p5 <= 354
 R609: - 21 x4,5_21 - p4 + p5 >= 0
 R610: 338 x4,5_21 - p4 + p5 <= 359
 R611: - 23 x4,5_23 - p4 + p5 >= 0
 R612: 338 x4,5_23 - p4 + p5 <= 361
 R613: - 25 x4,5_25 - p4 + p5 >= 0
 R614: 338 x4,5_25 - p4 + p5 <= 363
 R615: - 29 x4,5_29 - p4 + p5 >= 0
 R616: 338 x4,5_29 - p4 + p5 <= 367
 R617: - 34 x4,5_34 - p4 + p5 >= 0
 R618: 338 x4,5_34 - p4 + p5 <= 372
 R619: - 36 x4,5_36 - p4 + p5 >= 0
 R620: 338 x4,5_36 - p4 + p5 <= 374
 R621: - 39 x4,5_39 - p4 + p5 >= 0
 R622: 338 x4,5_39 - p4 + p5 <= 377
 R623: - 50 x4,5_50 - p4 + p5 >= 0
 R624: 338 x4,5_50 - p4 + p5 <= 388
 R625: p4 - p6 <= -1
 R626: - 2 x4,6_2 - p4 + p6 >= 0
 R627: 338 x4,6_2 - p4 + p6 <= 340
 R628: - 10 x4,6_10 - p4 + p6 >= 0
 R629: 338 x4,6_10 - p4 + p6 <= 348
 R630: - 11 x4,6_11 - p4 + p6 >= 0
 R631: 338 x4,6_11 - p4 + p6 <= 349
 R632: - 13 x4,6_13 - p4 + p6 >= 0
 R633: 338 x4,6_13 - p4 + p6 <= 351
 R634: - 14 x4,6_14 - p4 + p6 >= 0
 R635: 338 x4,6_14 - p4 + p6 <= 352
 R636: - 15 x4,6_15 - p4 + p6 >= 0
 R637: 338 x4,6_15 - p4 + p6 <= 353
 R638: - 16 x4,6_16 - p4 + p6 >= 0
 R639: 338 x4,6_16 - p4 + p6 <= 354
 R640: - 21 x4,6_21 - p4 + p6 >= 0
 R641: 338 x4,6_21 - p4 + p6 <= 359
 R642: - 23 x4,6_23 - p4 + p6 >= 0
 R643: 338 x4,6_23 - p4 + p6 <= 361
 R644: - 25 x4,6_25 - p4 + p6 >= 0
 R645: 338 x4,6_25 - p4 + p6 <= 363
 R646: - 29 x4,6_29 - p4 + p6 >= 0
 R647: 338 x4,6_29 - p4 + p6 <= 367
 R648: - 34 x4,6_34 - p4 + p6 >= 0
 R649: 338 x4,6_34 - p4 + p6 <= 372
 R650: - 36 x4,6_36 - p4 + p6 >= 0
 R651: 338 x4,6_36 - p4 + p6 <= 374
 R652: - 39 x4,6_39 - p4 + p6 >= 0
 R653: 338 x4,6_39 - p4 + p6 <= 377
 R654: - 50 x4,6_50 - p4 + p6 >= 0
 R655: 338 x4,6_50 - p4 + p6 <= 388
 R656: p5 - p6 <= -1
 R657: - 2 x5,6_2 - p5 + p6 >= 0
 R658: 338 x5,6_2 - p5 + p6 <= 340
 R659: - 10 x5,6_10 - p5 + p6 >= 0
 R660: 338 x5,6_10 - p5 + p6 <= 348
 R661: - 11 x5,6_11 - p5 + p6 >= 0
 R662: 338 x5,6_11 - p5 + p6 <= 349
 R663: - 13 x5,6_13 - p5 + p6 >= 0
 R664: 338 x5,6_13 - p5 + p6 <= 351
 R665: - 14 x5,6_14 - p5 + p6 >= 0
 R666: 338 x5,6_14 - p5 + p6 <= 352
 R667: - 15 x5,6_15 - p5 + p6 >= 0
 R668: 338 x5,6_15 - p5 + p6 <= 353
 R669: - 16 x5,6_16 - p5 + p6 >= 0
 R670: 338 x5,6_16 - p5 + p6 <= 354
 R671: - 21 x5,6_21 - p5 + p6 >= 0
 R672: 338 x5,6_21 - p5 + p6 <= 359
 R673: - 23 x5,6_23 - p5 + p6 >= 0
 R674: 338 x5,6_23 - p5 + p6 <= 361
 R675: - 25 x5,6_25 - p5 + p6 >= 0
 R676: 338 x5,6_25 - p5 + p6 <= 363
 R677: - 29 x5,6_29 - p5 + p6 >= 0
 R678: 338 x5,6_29 - p5 + p6 <= 367
 R679: - 34 x5,6_34 - p5 + p6 >= 0
 R680: 338 x5,6_34 - p5 + p6 <= 372
 R681: - 36 x5,6_36 - p5 + p6 >= 0
 R682: 338 x5,6_36 - p5 + p6 <= 374
 R683: - 39 x5,6_39 - p5 + p6 >= 0
 R684: 338 x5,6_39 - p5 + p6 <= 377
 R685: - 50 x5,6_50 - p5 + p6 >= 0
 R686: 338 x5,6_50 - p5 + p6 <= 388
Bounds
Binaries
 x0,1_2 x0,1_10 x0,1_11 x0,1_13 x0,1_14 x0,1_15 x0,1_16 x0,1_21 x0,1_23
 x0,1_25 x0,1_29 x0,1_34 x0,1_36 x0,1_39 x0,1_50 x0,2_2 x0,2_10 x0,2_11
 x0,2_13 x0,2_14 x0,2_15 x0,2_16 x0,2_21 x0,2_23 x0,2_25 x0,2_29 x0,2_34
 x0,2_36 x0,2_39 x0,2_50 x0,3_2 x0,3_10 x0,3_11 x0,3_13 x0,3_14 x0,3_15
 x0,3_16 x0,3_21 x0,3_23 x0,3_25 x0,3_29 x0,3_34 x0,3_36 x0,3_39 x0,3_50
 x0,4_2 x0,4_10 x0,4_11 x0,4_13 x0,4_14 x0,4_15 x0,4_16 x0,4_21 x0,4_23
 x0,4_25 x0,4_29 x0,4_34 x0,4_36 x0,4_39 x0,4_50 x0,5_2 x0,5_10 x0,5_11
 x0,5_13 x0,5_14 x0,5_15 x0,5_16 x0,5_21 x0,5_23 x0,5_25 x0,5_29 x0,5_34
 x0,5_36 x0,5_39 x0,5_50 x0,6_2 x0,6_10 x0,6_11 x0,6_13 x0,6_14 x0,6_15
 x0,6_16 x0,6_21 x0,6_23 x0,6_25 x0,6_29 x0,6_34 x0,6_36 x0,6_39 x0,6_50
 x1,2_2 x1,2_10 x1,2_11 x1,2_13 x1,2_14 x1,2_15 x1,2_16 x1,2_21 x1,2_23
 x1,2_25 x1,2_29 x1,2_34 x1,2_36 x1,2_39 x1,2_50 x1,3_2 x1,3_10 x1,3_11
 x1,3_13 x1,3_14 x1,3_15 x1,3_16 x1,3_21 x1,3_23 x1,3_25 x1,3_29 x1,3_34
 x1,3_36 x1,3_39 x1,3_50 x1,4_2 x1,4_10 x1,4_11 x1,4_13 x1,4_14 x1,4_15
 x1,4_16 x1,4_21 x1,4_23 x1,4_25 x1,4_29 x1,4_34 x1,4_36 x1,4_39 x1,4_50
 x1,5_2 x1,5_10 x1,5_11 x1,5_13 x1,5_14 x1,5_15 x1,5_16 x1,5_21 x1,5_23
 x1,5_25 x1,5_29 x1,5_34 x1,5_36 x1,5_39 x1,5_50 x1,6_2 x1,6_10 x1,6_11
 x1,6_13 x1,6_14 x1,6_15 x1,6_16 x1,6_21 x1,6_23 x1,6_25 x1,6_29 x1,6_34
 x1,6_36 x1,6_39 x1,6_50 x2,3_2 x2,3_10 x2,3_11 x2,3_13 x2,3_14 x2,3_15
 x2,3_16 x2,3_21 x2,3_23 x2,3_25 x2,3_29 x2,3_34 x2,3_36 x2,3_39 x2,3_50
 x2,4_2 x2,4_10 x2,4_11 x2,4_13 x2,4_14 x2,4_15 x2,4_16 x2,4_21 x2,4_23
 x2,4_25 x2,4_29 x2,4_34 x2,4_36 x2,4_39 x2,4_50 x2,5_2 x2,5_10 x2,5_11
 x2,5_13 x2,5_14 x2,5_15 x2,5_16 x2,5_21 x2,5_23 x2,5_25 x2,5_29 x2,5_34
 x2,5_36 x2,5_39 x2,5_50 x2,6_2 x2,6_10 x2,6_11 x2,6_13 x2,6_14 x2,6_15
 x2,6_16 x2,6_21 x2,6_23 x2,6_25 x2,6_29 x2,6_34 x2,6_36 x2,6_39 x2,6_50
 x3,4_2 x3,4_10 x3,4_11 x3,4_13 x3,4_14 x3,4_15 x3,4_16 x3,4_21 x3,4_23
 x3,4_25 x3,4_29 x3,4_34 x3,4_36 x3,4_39 x3,4_50 x3,5_2 x3,5_10 x3,5_11
 x3,5_13 x3,5_14 x3,5_15 x3,5_16 x3,5_21 x3,5_23 x3,5_25 x3,5_29 x3,5_34
 x3,5_36 x3,5_39 x3,5_50 x3,6_2 x3,6_10 x3,6_11 x3,6_13 x3,6_14 x3,6_15
 x3,6_16 x3,6_21 x3,6_23 x3,6_25 x3,6_29 x3,6_34 x3,6_36 x3,6_39 x3,6_50
 x4,5_2 x4,5_10 x4,5_11 x4,5_13 x4,5_14 x4,5_15 x4,5_16 x4,5_21 x4,5_23
 x4,5_25 x4,5_29 x4,5_34 x4,5_36 x4,5_39 x4,5_50 x4,6_2 x4,6_10 x4,6_11
 x4,6_13 x4,6_14 x4,6_15 x4,6_16 x4,6_21 x4,6_23 x4,6_25 x4,6_29 x4,6_34
 x4,6_36 x4,6_39 x4,6_50 x5,6_2 x5,6_10 x5,6_11 x5,6_13 x5,6_14 x5,6_15
 x5,6_16 x5,6_21 x5,6_23 x5,6_25 x5,6_29 x5,6_34 x5,6_36 x5,6_39 x5,6_50
Generals
 p0 p1 p2 p3 p4 p5 p6
End
